ITEM = _(1..35);
knapsack_n = 3;
capacities = [197, 191, 187];
profits = [38, 32, 93, 525, 16, 15, 85, 16, 129, 156, 148, 154, 24, 27, 613, 182, 17, 205, 389, 39, 250, 119, 293, 59, 107, 376, 22, 22, 616, 26, 68, 511, 144, 124, 369];
weights = [9, 3, 20, 59, 5, 10, 21, 7, 23, 29, 30, 30, 3, 10, 50, 44, 5, 87, 39, 10, 69, 25, 40, 30, 33, 82, 11, 9, 69, 12, 16, 44, 32, 31, 51];
